54641
53, 34, 54, 47, 30, 4, 18, 12, 9, 14, 2, 15, 39, 46, 36, 1, 27, 33, 42, 45, 11, 31, 25, 52, 16, 10, 22, 29, 21, 23, 49, 26, 55, 28, 6, 3, 43, 40, 51, 37, 7, 20, 50, 24, 35, 5, 13, 41, 32, 8, 38, 44, 19, 48, 17
